* ENCODING=ISO-8859-1
NAME          CPLEX
ROWS
 N  obj1    
 G  c1      
 G  c2      
 G  c3      
 G  c4      
 G  c5      
 G  c6      
 G  c7      
 G  c8      
 G  c9      
 G  c10     
 G  c11     
 G  c12     
 G  c13     
 G  c14     
 G  c15     
 G  c16     
 G  c17     
 G  c18     
 G  c19     
 G  c20     
 G  c21     
 G  c22     
 G  c23     
 G  c24     
 G  c25     
 G  c26     
 G  c27     
 G  c28     
 G  c29     
 G  c30     
 G  c31     
 G  c32     
 G  c33     
 G  c34     
 G  c35     
 G  c36     
 G  c37     
 G  c38     
 G  c39     
 G  c40     
COLUMNS
    MARK0000  'MARKER'                 'INTORG'
    x1        obj1                            1
    x1        c6                            395
    x1        c11                           942
    x1        c12                           692
    x1        c21                           596
    x1        c25                           133
    x1        c30                           957
    x1        c32                           573
    x2        obj1                            1
    x2        c1                            817
    x2        c24                           134
    x2        c33                           654
    x3        obj1                            1
    x3        c1                            872
    x3        c3                            402
    x3        c5                            645
    x3        c35                           988
    x3        c36                           433
    x4        obj1                            1
    x4        c1                            324
    x4        c12                           764
    x5        obj1                            1
    x5        c21                           136
    x5        c29                           399
    x5        c33                           542
    x5        c38                           972
    x6        obj1                            1
    x6        c6                            985
    x6        c8                            655
    x6        c9                            187
    x6        c11                           599
    x6        c34                           199
    x7        obj1                            1
    x7        c18                           561
    x8        obj1                            1
    x8        c4                            265
    x8        c8                            602
    x8        c15                           163
    x8        c17                           313
    x8        c18                           795
    x8        c27                           389
    x9        obj1                            1
    x9        c21                           553
    x9        c32                           947
    x10       obj1                            1
    x10       c5                            785
    x10       c6                            137
    x10       c28                           328
    x11       obj1                            1
    x11       c1                            680
    x11       c21                           190
    x11       c28                           122
    x12       obj1                            1
    x12       c13                           788
    x13       obj1                            1
    x13       c6                            214
    x13       c7                            980
    x13       c20                           525
    x14       obj1                            1
    x14       c10                           631
    x14       c18                           165
    x14       c31                           654
    x15       obj1                            1
    x15       c4                            546
    x15       c14                           100
    x15       c38                           279
    x16       obj1                            1
    x16       c10                           983
    x16       c19                           413
    x16       c20                           501
    x16       c21                           552
    x16       c25                           798
    x16       c29                           632
    x16       c32                           936
    x17       obj1                            1
    x17       c9                            457
    x17       c12                           867
    x17       c13                           134
    x17       c40                           631
    x18       obj1                            1
    x18       c10                           404
    x18       c26                           664
    x18       c33                           690
    x18       c34                           526
    x19       obj1                            1
    x19       c19                           721
    x19       c26                           687
    x19       c28                           834
    x19       c31                           680
    x20       obj1                            1
    x20       c5                            290
    x20       c23                           689
    x20       c39                           505
    x21       obj1                            1
    x21       c31                           224
    x21       c36                           250
    x22       obj1                            1
    x22       c3                            328
    x22       c12                           846
    x22       c14                           733
    x22       c16                           194
    x22       c23                           120
    x22       c26                           449
    x22       c27                           725
    x22       c31                           744
    x23       obj1                            1
    x23       c4                            411
    x23       c25                           988
    x23       c27                           477
    x24       obj1                            1
    x24       c2                            718
    x24       c13                           757
    x24       c18                           265
    x24       c26                           435
    x24       c33                           970
    x24       c38                           725
    x25       obj1                            1
    x25       c10                           655
    x25       c19                           353
    x25       c20                           910
    x25       c22                           516
    x25       c32                           443
    x25       c34                           372
    x26       obj1                            1
    x26       c3                            384
    x26       c12                           108
    x26       c15                           430
    x26       c25                           516
    x26       c32                           651
    x27       obj1                            1
    x27       c1                            976
    x27       c3                            511
    x27       c4                            774
    x27       c5                            356
    x27       c12                           270
    x27       c15                           810
    x28       obj1                            1
    x28       c28                           769
    x28       c35                           473
    x29       obj1                            1
    x29       c2                            549
    x29       c15                           951
    x30       obj1                            1
    x30       c4                            586
    x30       c14                           958
    x30       c20                           265
    x30       c22                           750
    x31       obj1                            1
    x31       c3                            332
    x31       c4                            383
    x31       c5                            940
    x31       c22                           922
    x31       c23                           420
    x31       c28                           187
    x31       c35                           164
    x31       c36                           481
    x32       obj1                            1
    x32       c2                            882
    x32       c5                            740
    x32       c6                            849
    x32       c9                            175
    x32       c11                           579
    x32       c25                           182
    x33       obj1                            1
    x33       c11                           945
    x33       c12                           730
    x33       c18                           235
    x33       c20                           105
    x34       obj1                            1
    x34       c15                           321
    x34       c23                           450
    x34       c26                           460
    x34       c35                           736
    x35       obj1                            1
    x35       c20                           344
    x35       c21                           406
    x35       c24                           217
    x35       c26                           407
    x35       c27                           334
    x36       obj1                            1
    x36       c6                            558
    x36       c13                           917
    x36       c15                           733
    x37       obj1                            1
    x37       c2                            718
    x37       c7                            273
    x37       c13                           191
    x38       obj1                            1
    x38       c21                           760
    x38       c27                           791
    x38       c30                           510
    x38       c35                           930
    x38       c36                           917
    x39       obj1                            1
    x39       c2                            542
    x39       c8                            565
    x39       c12                           449
    x39       c13                           264
    x39       c14                           343
    x39       c19                           576
    x39       c28                           988
    x40       obj1                            1
    x40       c4                            381
    x40       c5                            144
    x40       c15                           262
    x40       c38                           408
    x41       obj1                            1
    x41       c2                            981
    x41       c10                           823
    x41       c35                           486
    x41       c38                           721
    x42       obj1                            1
    x42       c1                            223
    x42       c3                            373
    x42       c4                            759
    x42       c6                            750
    x42       c10                           945
    x42       c21                           767
    x42       c24                           209
    x42       c31                           240
    x43       obj1                            1
    x43       c4                            845
    x43       c11                           842
    x43       c12                           826
    x43       c23                           804
    x43       c32                           855
    x43       c36                           423
    x43       c39                           538
    x44       obj1                            1
    x44       c14                           209
    x44       c17                           688
    x44       c20                           900
    x44       c37                           956
    x45       obj1                            1
    x45       c3                            561
    x45       c19                           267
    x45       c26                           735
    x46       obj1                            1
    x46       c3                            447
    x46       c14                           507
    x46       c15                           393
    x47       obj1                            1
    x47       c17                           145
    x47       c27                           803
    x48       obj1                            1
    x48       c24                           435
    x49       obj1                            1
    x49       c7                            850
    x49       c14                           334
    x49       c15                           406
    x49       c21                           537
    x49       c25                           349
    x49       c27                           955
    x50       obj1                            1
    x50       c5                            864
    x50       c35                           643
    x51       obj1                            1
    x51       c2                            871
    x51       c21                           583
    x51       c29                           593
    x52       obj1                            1
    x52       c1                            169
    x52       c5                            536
    x52       c30                           489
    x52       c34                           950
    x53       obj1                            1
    x53       c4                            934
    x53       c26                           382
    x54       obj1                            1
    x54       c11                           105
    x54       c14                           194
    x54       c18                           390
    x54       c23                           531
    x54       c28                           307
    x54       c37                           626
    x55       obj1                            1
    x55       c2                            942
    x55       c10                           747
    x55       c23                           151
    x55       c27                           924
    x56       obj1                            1
    x56       c4                            159
    x56       c5                            147
    x56       c14                           438
    x56       c40                           785
    x57       obj1                            1
    x57       c15                           178
    x57       c16                           722
    x57       c25                           717
    x57       c38                           264
    x58       obj1                            1
    x58       c39                           595
    x59       obj1                            1
    x59       c12                           227
    x59       c13                           847
    x59       c14                           228
    x59       c17                           397
    x59       c27                           356
    x60       obj1                            1
    x60       c16                           262
    x61       obj1                            1
    x61       c10                           888
    x61       c15                           411
    x61       c19                           929
    x61       c31                           901
    x61       c32                           609
    x61       c35                           425
    x62       obj1                            1
    x62       c19                           503
    x63       obj1                            1
    x63       c10                           447
    x63       c28                           930
    x63       c30                           172
    x63       c35                           729
    x63       c37                           707
    x63       c39                           468
    x64       obj1                            1
    x64       c19                           926
    x64       c24                           367
    x64       c25                           461
    x65       obj1                            1
    x65       c4                            355
    x66       obj1                            1
    x66       c9                            622
    x66       c10                           203
    x66       c22                           741
    x66       c28                           164
    x66       c38                           639
    x66       c40                           236
    x67       obj1                            1
    x67       c20                           598
    x67       c28                           775
    x67       c31                           578
    x67       c37                           143
    x68       obj1                            1
    x68       c12                           680
    x68       c13                           948
    x68       c14                           834
    x68       c21                           439
    x69       obj1                            1
    x69       c3                            303
    x69       c11                           731
    x69       c22                           571
    x69       c28                           233
    x69       c34                           880
    x70       obj1                            1
    x70       c3                            679
    x70       c8                            461
    x70       c20                           208
    x70       c39                           566
    x70       c40                           754
    x71       obj1                            1
    x71       c6                            897
    x71       c29                           259
    x71       c36                           990
    x72       obj1                            1
    x72       c16                           314
    x73       obj1                            1
    x73       c3                            432
    x73       c7                            959
    x73       c25                           255
    x74       obj1                            1
    x74       c9                            126
    x74       c18                           971
    x74       c38                           793
    x75       obj1                            1
    x75       c20                           960
    x76       obj1                            1
    x76       c11                           851
    x76       c25                           908
    x77       obj1                            1
    x77       c16                           438
    x77       c22                           103
    x77       c26                           771
    x78       obj1                            1
    x78       c3                            960
    x78       c20                           363
    x78       c28                           565
    x78       c31                           874
    x78       c37                           139
    x78       c38                           284
    x79       obj1                            1
    x79       c1                            119
    x79       c30                           151
    x79       c35                           768
    x80       obj1                            1
    x80       c1                            686
    x80       c11                           826
    x80       c22                           990
    MARK0001  'MARKER'                 'INTEND'
RHS
    rhs       c1                           2433
    rhs       c2                           3102
    rhs       c3                           2856
    rhs       c4                           3199
    rhs       c5                           2724
    rhs       c6                           2393
    rhs       c7                           1531
    rhs       c8                           1142
    rhs       c9                            784
    rhs       c10                          3363
    rhs       c11                          3210
    rhs       c12                          3230
    rhs       c13                          2423
    rhs       c14                          2439
    rhs       c15                          2529
    rhs       c16                           965
    rhs       c17                           772
    rhs       c18                          1691
    rhs       c19                          2344
    rhs       c20                          2840
    rhs       c21                          2760
    rhs       c22                          2297
    rhs       c23                          1583
    rhs       c24                           681
    rhs       c25                          2654
    rhs       c26                          2495
    rhs       c27                          2877
    rhs       c28                          3101
    rhs       c29                           942
    rhs       c30                          1140
    rhs       c31                          2448
    rhs       c32                          2507
    rhs       c33                          1428
    rhs       c34                          1464
    rhs       c35                          3171
    rhs       c36                          1747
    rhs       c37                          1286
    rhs       c38                          2543
    rhs       c39                          1336
    rhs       c40                          1203
BOUNDS
 LI bnd       x1        0
 LI bnd       x2        0
 LI bnd       x3        0
 LI bnd       x4        0
 LI bnd       x5        0
 LI bnd       x6        0
 LI bnd       x7        0
 LI bnd       x8        0
 LI bnd       x9        0
 LI bnd       x10       0
 LI bnd       x11       0
 LI bnd       x12       0
 LI bnd       x13       0
 LI bnd       x14       0
 LI bnd       x15       0
 LI bnd       x16       0
 LI bnd       x17       0
 LI bnd       x18       0
 LI bnd       x19       0
 LI bnd       x20       0
 LI bnd       x21       0
 LI bnd       x22       0
 LI bnd       x23       0
 LI bnd       x24       0
 LI bnd       x25       0
 LI bnd       x26       0
 LI bnd       x27       0
 LI bnd       x28       0
 LI bnd       x29       0
 LI bnd       x30       0
 LI bnd       x31       0
 LI bnd       x32       0
 LI bnd       x33       0
 LI bnd       x34       0
 LI bnd       x35       0
 LI bnd       x36       0
 LI bnd       x37       0
 LI bnd       x38       0
 LI bnd       x39       0
 LI bnd       x40       0
 LI bnd       x41       0
 LI bnd       x42       0
 LI bnd       x43       0
 LI bnd       x44       0
 LI bnd       x45       0
 LI bnd       x46       0
 LI bnd       x47       0
 LI bnd       x48       0
 LI bnd       x49       0
 LI bnd       x50       0
 LI bnd       x51       0
 LI bnd       x52       0
 LI bnd       x53       0
 LI bnd       x54       0
 LI bnd       x55       0
 LI bnd       x56       0
 LI bnd       x57       0
 LI bnd       x58       0
 LI bnd       x59       0
 LI bnd       x60       0
 LI bnd       x61       0
 LI bnd       x62       0
 LI bnd       x63       0
 LI bnd       x64       0
 LI bnd       x65       0
 LI bnd       x66       0
 LI bnd       x67       0
 LI bnd       x68       0
 LI bnd       x69       0
 LI bnd       x70       0
 LI bnd       x71       0
 LI bnd       x72       0
 LI bnd       x73       0
 LI bnd       x74       0
 LI bnd       x75       0
 LI bnd       x76       0
 LI bnd       x77       0
 LI bnd       x78       0
 LI bnd       x79       0
 LI bnd       x80       0
ENDATA
